50
18084

888 678
826 911
795 8
429 610
217 860
37 995
153 587
432 387
300 435
312 238
825 805
339 451
998 564
443 910
786 385
38 529
390 503
263 575
642 542
782 915
948 56
279 687
360 833
294 994
187 605
745 796
368 91
624 830
125 479
310 524
53 72
229 592
37 884
157 725
72 573
466 529
51 543
794 437
145 317
387 212
965 772
416 603
360 545
525 291
625 947
622 686
52 201
791 454
564 125
657 60
